100
128
14
4
50
27
7
36
13
43
36
26
10
12
43
22
45
24
5
53
47
10
24
46
24
16
21
27
44
37
36
62
50
31
17
18
18
16
64
64
58
35
34
5
24
24
40
39
43
51
62
30
32
39
40
27
34
22
60
40
41
22
62
28
53
53
21
33
45
62
29
50
36
34
51
47
35
7
43
57
29
59
35
41
1
37
34
50
35
43
60
32
45
33
50
36
32
46
50
63
60
5